
Gurobi 12.0.2 (mac64[arm]) logging started Fri Jun 13 17:49:51 2025

Set parameter LogFile to value "/Users/yurunfeng/Documents/GitHub/LRGTS-store-location/result/gurobi/snyder/15nodes/15-0.85-3.log"
Gurobi Optimizer version 12.0.2 build v12.0.2rc0 (mac64[arm] - Darwin 24.5.0 24F74)

CPU model: Apple M4
Thread count: 10 physical cores, 10 logical processors, using up to 10 threads

Non-default parameters:
TimeLimit  1200

Optimize a model with 4785 rows, 7245 columns and 33600 nonzeros
Model fingerprint: 0x15f843d9
Variable types: 3615 continuous, 3630 integer (3630 binary)
Coefficient statistics:
  Matrix range     [2e-01, 1e+00]
  Objective range  [7e+03, 3e+06]
  Bounds range     [1e+00, 1e+00]
  RHS range        [1e+00, 3e+00]
Found heuristic solution: objective 1.648316e+07
Presolve removed 488 rows and 240 columns
Presolve time: 0.05s
Presolved: 4297 rows, 7005 columns, 30130 nonzeros
Variable types: 3375 continuous, 3630 integer (3630 binary)

Root relaxation: objective 7.732971e+05, 547 iterations, 0.01 seconds (0.02 work units)

    Nodes    |    Current Node    |     Objective Bounds      |     Work
 Expl Unexpl |  Obj  Depth IntInf | Incumbent    BestBd   Gap | It/Node Time

     0     0 773297.088    0  210 1.6483e+07 773297.088  95.3%     -    0s
H    0     0                    1183392.9702 773297.088  34.7%     -    0s
H    0     0                    1183392.3244 794732.733  32.8%     -    0s
H    0     0                    1183392.3238 794732.733  32.8%     -    0s
     0     0 805889.731    0  323 1183392.32 805889.731  31.9%     -    0s
     0     0 805910.090    0  329 1183392.32 805910.090  31.9%     -    0s
H    0     0                    1181729.8324 805910.090  31.8%     -    0s
     0     0 810274.749    0  340 1181729.83 810274.749  31.4%     -    0s
     0     0 811234.813    0  330 1181729.83 811234.813  31.4%     -    0s
     0     0 811845.386    0  380 1181729.83 811845.386  31.3%     -    0s
     0     0 811857.583    0  374 1181729.83 811857.583  31.3%     -    0s
     0     0 811866.330    0  375 1181729.83 811866.330  31.3%     -    0s
     0     0 811876.682    0  377 1181729.83 811876.682  31.3%     -    0s
H    0     0                    1179542.4313 811876.682  31.2%     -    0s
     0     0 847808.724    0  482 1179542.43 847808.724  28.1%     -    0s
     0     0 847808.724    0  483 1179542.43 847808.724  28.1%     -    0s
     0     0 849973.041    0  467 1179542.43 849973.041  27.9%     -    0s
     0     0 849973.067    0  469 1179542.43 849973.067  27.9%     -    0s
H    0     0                    1175114.7505 850312.705  27.6%     -    0s
     0     0 850312.705    0  467 1175114.75 850312.705  27.6%     -    0s
     0     0 850353.931    0  470 1175114.75 850353.931  27.6%     -    0s
     0     0 874945.262    0  514 1175114.75 874945.262  25.5%     -    1s
H    0     0                    1166988.8197 874949.966  25.0%     -    1s
     0     0 878880.172    0  518 1166988.82 878880.172  24.7%     -    1s
     0     0 879587.244    0  515 1166988.82 879587.244  24.6%     -    1s
     0     0 879678.235    0  511 1166988.82 879678.235  24.6%     -    1s
     0     0 879851.703    0  515 1166988.82 879851.703  24.6%     -    1s
     0     0 879853.993    0  512 1166988.82 879853.993  24.6%     -    1s
     0     0 898535.921    0  550 1166988.82 898535.921  23.0%     -    1s
     0     0 898603.737    0  548 1166988.82 898603.737  23.0%     -    1s
     0     0 898626.570    0  545 1166988.82 898626.570  23.0%     -    1s
H    0     0                    1165075.4906 898658.763  22.9%     -    1s
     0     0 900975.952    0  578 1165075.49 900975.952  22.7%     -    1s
     0     0 901601.873    0  588 1165075.49 901601.873  22.6%     -    2s
     0     0 901735.198    0  592 1165075.49 901735.198  22.6%     -    2s
     0     0 901835.910    0  606 1165075.49 901835.910  22.6%     -    2s
     0     0 901842.212    0  603 1165075.49 901842.212  22.6%     -    2s
     0     0 914872.176    0  600 1165075.49 914872.176  21.5%     -    2s
     0     0 918395.551    0  603 1165075.49 918395.551  21.2%     -    2s
     0     0 918398.691    0  602 1165075.49 918398.691  21.2%     -    2s
     0     0 924592.724    0  588 1165075.49 924592.724  20.6%     -    2s
     0     0 931186.986    0  606 1165075.49 931186.986  20.1%     -    2s
     0     0 931369.121    0  608 1165075.49 931369.121  20.1%     -    2s
     0     0 931500.696    0  623 1165075.49 931500.696  20.0%     -    3s
     0     0 931541.942    0  624 1165075.49 931541.942  20.0%     -    3s
     0     0 938045.748    0  644 1165075.49 938045.748  19.5%     -    3s
     0     0 940893.606    0  636 1165075.49 940893.606  19.2%     -    3s
     0     0 940902.788    0  631 1165075.49 940902.788  19.2%     -    3s
     0     0 943010.276    0  660 1165075.49 943010.276  19.1%     -    3s
     0     0 943014.089    0  661 1165075.49 943014.089  19.1%     -    3s
     0     0 943280.243    0  662 1165075.49 943280.243  19.0%     -    3s
     0     0 943444.558    0  679 1165075.49 943444.558  19.0%     -    3s
     0     0 943520.511    0  686 1165075.49 943520.511  19.0%     -    3s
     0     0 947611.191    0  679 1165075.49 947611.191  18.7%     -    4s
     0     0 947611.311    0  682 1165075.49 947611.311  18.7%     -    4s
     0     0 949128.976    0  677 1165075.49 949128.976  18.5%     -    4s
     0     0 950243.160    0  685 1165075.49 950243.160  18.4%     -    4s
     0     0 950667.294    0  678 1165075.49 950667.294  18.4%     -    4s
     0     0 950939.833    0  678 1165075.49 950939.833  18.4%     -    4s
     0     0 950996.790    0  687 1165075.49 950996.790  18.4%     -    4s
     0     0 953623.421    0  708 1165075.49 953623.421  18.1%     -    5s
     0     0 954984.333    0  721 1165075.49 954984.333  18.0%     -    5s
     0     0 954984.333    0  722 1165075.49 954984.333  18.0%     -    5s
     0     0 955513.764    0  722 1165075.49 955513.764  18.0%     -    5s
     0     0 955687.382    0  737 1165075.49 955687.382  18.0%     -    5s
     0     0 955863.804    0  728 1165075.49 955863.804  18.0%     -    5s
     0     0 955887.196    0  735 1165075.49 955887.196  18.0%     -    5s
     0     0 957804.996    0  719 1165075.49 957804.996  17.8%     -    5s
     0     0 957804.996    0  720 1165075.49 957804.996  17.8%     -    5s
     0     0 959270.791    0  731 1165075.49 959270.791  17.7%     -    6s
     0     0 959273.945    0  729 1165075.49 959273.945  17.7%     -    6s
     0     0 960202.977    0  719 1165075.49 960202.977  17.6%     -    6s
     0     0 960367.446    0  716 1165075.49 960367.446  17.6%     -    6s
     0     0 960367.446    0  715 1165075.49 960367.446  17.6%     -    6s
     0     0 960469.644    0  710 1165075.49 960469.644  17.6%     -    6s
     0     0 962571.493    0  767 1165075.49 962571.493  17.4%     -    6s
     0     0 963333.454    0  747 1165075.49 963333.454  17.3%     -    7s
     0     0 963633.432    0  774 1165075.49 963633.432  17.3%     -    7s
     0     0 963909.414    0  773 1165075.49 963909.414  17.3%     -    7s
     0     0 963991.943    0  767 1165075.49 963991.943  17.3%     -    7s
     0     0 965607.828    0  769 1165075.49 965607.828  17.1%     -    7s
     0     0 965620.183    0  766 1165075.49 965620.183  17.1%     -    7s
     0     0 966770.060    0  756 1165075.49 966770.060  17.0%     -    7s
     0     0 967109.481    0  758 1165075.49 967109.481  17.0%     -    7s
     0     0 967114.620    0  761 1165075.49 967114.620  17.0%     -    8s
     0     0 967286.105    0  768 1165075.49 967286.105  17.0%     -    8s
     0     0 967361.106    0  771 1165075.49 967361.106  17.0%     -    8s
     0     0 969499.557    0  754 1165075.49 969499.557  16.8%     -    8s
     0     0 971019.524    0  773 1165075.49 971019.524  16.7%     -    8s
     0     0 971712.624    0  795 1165075.49 971712.624  16.6%     -    9s
     0     0 971749.727    0  794 1165075.49 971749.727  16.6%     -    9s
     0     0 971942.379    0  790 1165075.49 971942.379  16.6%     -    9s
     0     0 972024.440    0  796 1165075.49 972024.440  16.6%     -    9s
     0     0 974168.179    0  778 1165075.49 974168.179  16.4%     -    9s
     0     0 975057.892    0  788 1165075.49 975057.892  16.3%     -    9s
     0     0 975190.156    0  798 1165075.49 975190.156  16.3%     -    9s
     0     0 977435.318    0  778 1165075.49 977435.318  16.1%     -   10s
     0     0 978319.173    0  781 1165075.49 978319.173  16.0%     -   10s
     0     0 978584.173    0  787 1165075.49 978584.173  16.0%     -   10s
     0     0 978677.237    0  780 1165075.49 978677.237  16.0%     -   10s
     0     0 980440.156    0  774 1165075.49 980440.156  15.8%     -   11s
     0     0 981305.340    0  792 1165075.49 981305.340  15.8%     -   11s
     0     0 981859.154    0  786 1165075.49 981859.154  15.7%     -   11s
     0     0 982061.175    0  785 1165075.49 982061.175  15.7%     -   11s
     0     0 983848.164    0  790 1165075.49 983848.164  15.6%     -   12s
     0     0 983848.196    0  792 1165075.49 983848.196  15.6%     -   12s
     0     0 984203.723    0  808 1165075.49 984203.723  15.5%     -   12s
     0     0 984205.892    0  803 1165075.49 984205.892  15.5%     -   12s
     0     0 984350.523    0  800 1165075.49 984350.523  15.5%     -   12s
     0     0 985330.350    0  787 1165075.49 985330.350  15.4%     -   12s
     0     0 985330.927    0  787 1165075.49 985330.927  15.4%     -   12s
     0     0 1164477.11    0   68 1165075.49 1164477.11  0.05%     -   14s
     0     0     cutoff    0      1165075.49 1165075.49  0.00%     -   14s

Explored 1 nodes (51160 simplex iterations) in 14.47 seconds (24.86 work units)
Thread count was 10 (of 10 available processors)

Solution count 7: 1.16508e+06 1.16699e+06 1.17511e+06 ... 1.64832e+07

Optimal solution found (tolerance 1.00e-04)
Best objective 1.165075490598e+06, best bound 1.165075490598e+06, gap 0.0000%
